10
20
880
765
753
740
735
597
389
344
303
9
97	497
129	529
411	811
427	827
552	952
557	957
734	1134
897	1297
942	1342
950	1350
15	415
91	491
431	831
536	936
568	968
622	1022
664	1064
681	1081
857	1257
879	1279
